nbNodes = 12;
nbVehi = 3;
nbServi = 5;

e = 
 [|    0,   28,   90,  298,   83,  156,  318,  449,   14,   97,   12,    0,
 |    0,  245,   35,    1,   51,  288,  256,  335,  300,   62,   77,    0,
 |    0,    4,  153,  158,  382,  174,  193,  256,   33,  141,  165,    0,
 |    0,  239,  265,  302,  277,    3,  131,  299,   24,    2,  248,    0,
 |    0,  334,  144,  203,  382,  277,  294,   36,  160,  178,  267,    0,
 |];

l = 
 [| 480,  87, 139, 329, 133, 215, 357, 492,  44, 140,  68, 480,
 | 480, 286,  88,  35,  82, 336, 295, 380, 341,  98, 136, 480,
 | 480,  60, 194, 194, 426, 205, 250, 295,  92, 177, 204, 480,
 | 480, 276, 303, 348, 310,  50, 183, 336,  73,  44, 308, 480,
 | 480, 371, 195, 243, 438, 321, 330,  88, 201, 208, 322, 480,
 |];

a = 
 [|  1,  1,  1,  1,  1,
 |  1,  1,  1,  1,  1,
 |  1,  1,  1,  1,  1,
 |];

p = array3d(1..nbNodes,1..nbVehi,1..nbServi,
[  0,  0,  0,  0,  0,	  0,  0,  0,  0,  0,	  0,  0,  0,  0,  0,	
 25, 13, 28,  5, 28,	 23,  7, 27, 19, 19,	 14, 29, 11, 20, 20,	
 11, 17, 11, 15, 21,	  5, 27,  7, 15, 20,	 21, 20, 24, 19,  7,	
 20, 14, 17, 20, 16,	 17, 14, 21, 15, 28,	 10, 26,  5, 16, 16,	
 20, 24,  5, 26, 11,	 22, 26,  8, 24, 14,	 26, 16,  6, 20,  7,	
 10, 11, 19, 22, 26,	  5, 10, 12, 21, 22,	 13, 28, 18, 13, 16,	
  7, 28, 12,  7, 26,	 18, 24, 23, 24, 21,	  9, 20,  9, 10, 10,	
 11, 16, 18, 25, 10,	 15, 28, 17, 24, 19,	  9,  7, 20, 25, 15,	
  6, 27, 15, 16,  6,	 12, 29, 28,  5, 23,	 19, 11, 15, 23, 16,	
 21, 29, 29,  9, 27,	 12, 21, 25, 24, 16,	 16, 29, 18,  6, 24,	
  6, 10, 23, 16, 21,	 24, 23, 22, 24, 25,	 18, 13,  6, 28,  6,	
  0,  0,  0,  0,  0,	  0,  0,  0,  0,  0,	  0,  0,  0,  0,  0,	
]);

rs = 
[|true,true,true,true,true,
 |false,false,false,false,true,
 |false,false,false,true,false,
 |false,true,false,false,false,
 |false,true,false,false,false,
 |false,false,true,false,false,
 |false,false,false,true,false,
 |false,false,true,false,false,
 |false,false,true,false,false,
 |false,false,false,true,false,
 |true,false,false,false,false,
 |true,true,true,true,true,
 |];

d=[|0, 13, 16, 25, 8, 8, 27, 15, 15, 25, 22, 0, 
|13, 0, 3, 38, 19, 19, 20, 25, 13, 38, 17, 13, 
|16, 3, 0, 41, 22, 22, 20, 28, 15, 41, 16, 16, 
|25, 38, 41, 0, 18, 18, 52, 28, 39, 2, 38, 25, 
|8, 19, 22, 18, 0, 0, 36, 19, 23, 18, 23, 8, 
|8, 19, 22, 18, 0, 0, 36, 19, 23, 18, 23, 8, 
|27, 20, 20, 52, 36, 36, 0, 29, 13, 51, 36, 27, 
|15, 25, 28, 28, 19, 19, 29, 0, 16, 26, 37, 15, 
|15, 13, 15, 39, 23, 23, 13, 16, 0, 38, 30, 15, 
|25, 38, 41, 2, 18, 18, 51, 26, 38, 0, 39, 25, 
|22, 17, 16, 38, 23, 23, 36, 37, 30, 39, 0, 22, 
|0, 13, 16, 25, 8, 8, 27, 15, 15, 25, 22, 0, 
|];

%coord=[ (0,0), (-11,7), (-14,8), (15,-21), (2,-8), (2,-8), (-7,27), (14,7), (0,15), (17,-19), (-21,-7), (0,0), ];

